FILENAME:   /home/mcs001/s132664/testsets/IP/miplib2010/neos-826841.mps.gz
SETTINGS:   settings_isopr_ostrowskidynamicbranching_avoidsubtreenodes
TIMELIMIT:  7200
OUTPUTNAME: final_miplib_symretope_if_extended_generating_set_cpx_v802__settings_isopr_ostrowskidynamicbranching_avoidsubtreenodes__0__
BINNAME:    bin/symmetries.linux.x86_64.gnu.opt.cpx
BASENAME:   neos-826841.mps.gz
SEED:       0
@01 /home/mcs001/s132664/testsets/IP/miplib2010/neos-826841.mps.gz ===========
@02 neos-826841.mps.gz
@03 1686573976
SCIP version 8.0.2 [precision: 8 byte] [memory: block] [mode: optimized] [LP solver: CPLEX 20.1.0.0] [GitHash: 5f0473c]
Copyright (C) 2002-2022 Konrad-Zuse-Zentrum fuer Informationstechnik Berlin (ZIB)

Symmetry handling routines - (c) Marc Pfetsch, Thomas Rehn, Christopher Hojny.
[GitHash: a1587cb]


Turned off presolver <gateextraction>.
reading parameter file <../settings/settings_isopr_ostrowskidynamicbranching_avoidsubtreenodes.set> ...

Changed settings:
limits/time = 7200
limits/restarts = 0
constraints/orbitope/sepafreq = -1
constraints/orbitope/propfreq = 1
presolving/gateextraction/maxrounds = 0
propagating/isoprune/avoidsubtreenodes = TRUE
useisoprune = TRUE


solving problem ...

original problem has 5516 variables (3488 bin, 0 int, 0 impl, 2028 cont) and 2354 constraints
presolving:
(round 1, fast)       108 del vars, 96 del conss, 0 add conss, 5455 chg bounds, 0 chg sides, 320 chg coeffs, 0 upgd conss, 0 impls, 338 clqs
(round 2, fast)       492 del vars, 96 del conss, 0 add conss, 5455 chg bounds, 12 chg sides, 320 chg coeffs, 0 upgd conss, 0 impls, 338 clqs
(round 3, exhaustive) 492 del vars, 98 del conss, 0 add conss, 5455 chg bounds, 13 chg sides, 320 chg coeffs, 0 upgd conss, 0 impls, 338 clqs
(round 4, exhaustive) 492 del vars, 98 del conss, 0 add conss, 5455 chg bounds, 13 chg sides, 320 chg coeffs, 678 upgd conss, 0 impls, 338 clqs
(round 5, medium)     492 del vars, 418 del conss, 320 add conss, 5455 chg bounds, 13 chg sides, 320 chg coeffs, 678 upgd conss, 0 impls, 2577 clqs
(round 6, exhaustive) 492 del vars, 482 del conss, 320 add conss, 5455 chg bounds, 13 chg sides, 320 chg coeffs, 678 upgd conss, 0 impls, 2577 clqs
   (0.1s) probing: 51/5024 (1.0%) - 0 fixings, 0 aggregations, 0 implications, 0 bound changes
   (0.1s) probing aborted: 50/50 successive totally useless probings
Required symmetry:			(1 bin, 0 int, 0 cont); (fixed: 0 bin, 1 int, 0 cont)
Time for symmetry detection:		0.04 	(matrix graph, 11272 nodes, 31104 edges)
Number of generators:			32 	(max: 1500)
Log10 of symmetry group order:		35.7
Number of vars moved by some symmetry:	5024
Total time for symmetry detection:	0.05

Turned off presolver <domcol>.
Turned off presolver <components>.

presolving (7 rounds: 7 fast, 5 medium, 4 exhaustive):
 492 deleted vars, 482 deleted constraints, 320 added constraints, 5455 tightened bounds, 0 added holes, 13 changed sides, 320 changed coefficients
 0 implications, 2577 cliques
presolved problem has 5024 variables (3488 bin, 0 int, 1536 impl, 0 cont) and 2193 constraints
     16 constraints of type <knapsack>
    594 constraints of type <setppc>
   1578 constraints of type <linear>
      4 constraints of type <logicor>
      1 constraints of type <symmetries>
Presolving Time: 0.12

 time | node  | left  |LP iter|LP it/n|mem/heur|mdpt |frac |vars |cons |cols |rows |cuts |confs|strbr|  dualbound   | primalbound  |  gap   
  0.3s|     1 |     0 |    23 |     - |    52M |   0 | 326 |5024 |2327 |5024 |2192 |   0 | 133 |   0 | 2.800820e+01 |      --      |    Inf 
  1.7s|     1 |     2 |  3913 |     - |    54M |   0 | 326 |5024 |2328 |5024 |2192 |   0 | 134 |  19 | 2.800820e+01 |      --      |    Inf 
 32.5s|   100 |    89 | 16975 | 132.0 |    56M |  65 |  80 |5024 |2350 |5024 |2192 |   0 | 162 | 639 | 2.800820e+01 |      --      |    Inf 
  107s|   200 |   171 | 34933 | 155.9 |    57M |  65 | 116 |5024 |2378 |5024 |2192 |   0 | 190 | 666 | 2.800820e+01 |      --      |    Inf 
  131s|   300 |   235 | 47429 | 145.6 |    58M |  65 | 142 |5024 |2397 |5024 |2192 |   0 | 211 | 701 | 2.800820e+01 |      --      |    Inf 
  274s|   400 |   299 | 57410 | 134.1 |    60M |  65 |  73 |5024 |2438 |5024 |2192 |   0 | 252 | 714 | 2.800820e+01 |      --      |    Inf 
  297s|   500 |   349 | 73204 | 138.9 |    61M |  65 | 159 |5024 |2497 |5024 |2192 |   0 | 311 | 737 | 2.800820e+01 |      --      |    Inf 

SCIP Status        : solving was interrupted [time limit reached]
Solving Time (sec) : 8797.94
Solving Nodes      : 533
Primal Bound       : +1.00000000000000e+20 (0 solutions)
Dual Bound         : +2.80082000000000e+01
Gap                : infinite

Number of variables fixed to 0 by isomorphism pruning:	  1851
Number of variables fixed to 1 by isomorphism pruning:	    50
@04 1686582774
